PDB Tile                                
   1.0000000000000000     
    15.0000000000000000    0.0000000000000000    0.0000000000000000
     0.0000000000000000   15.0000000000000000    0.0000000000000000
     0.0000000000000000    0.0000000000000000   15.0000000000000000
   H    C    O 
     7     6     1
Selective dynamics
Direct
  0.4334545433333332  0.3564895391333351  0.4958653747999975   T   T   T
  0.6002598404666699  0.3561710119333341  0.4972336888000015   T   T   T
  0.6832934022000003  0.4999858736666667  0.4966420531333355   T   T   T
  0.6002564429999993  0.6437985301333313  0.4971061348666694   T   T   T
  0.4334327280666699  0.6434786916000022  0.4957681297999983   T   T   T
  0.3068054318666640  0.4988469779333329  0.5514556169333318   T   T   T
  0.3151585162000003  0.4959990680000033  0.4292944074000005   T   T   T
  0.4248470663999981  0.4999952316000034  0.4965714812000002   T   T   T
  0.4708931147999991  0.4189414382000010  0.4963800907333322   T   T   T
  0.5639991163999980  0.4193265139999980  0.4965738654000020   T   T   T
  0.6105747818666671  0.4999797046000012  0.4963433742666652   T   T   T
  0.5639920830666654  0.5806477666000021  0.4964526295333300   T   T   T
  0.4708782732666634  0.5810185670666641  0.4949160146000028   T   T   T
  0.3320666551333318  0.5000666379999998  0.4916666745999976   F   F   F

  0.00000000E+00  0.00000000E+00  0.00000000E+00
  0.00000000E+00  0.00000000E+00  0.00000000E+00
  0.00000000E+00  0.00000000E+00  0.00000000E+00
  0.00000000E+00  0.00000000E+00  0.00000000E+00
  0.00000000E+00  0.00000000E+00  0.00000000E+00
  0.00000000E+00  0.00000000E+00  0.00000000E+00
  0.00000000E+00  0.00000000E+00  0.00000000E+00
  0.00000000E+00  0.00000000E+00  0.00000000E+00
  0.00000000E+00  0.00000000E+00  0.00000000E+00
  0.00000000E+00  0.00000000E+00  0.00000000E+00
  0.00000000E+00  0.00000000E+00  0.00000000E+00
  0.00000000E+00  0.00000000E+00  0.00000000E+00
  0.00000000E+00  0.00000000E+00  0.00000000E+00
  0.00000000E+00  0.00000000E+00  0.00000000E+00
