System = vibration

ISPIN = 2
ENCUT = 400
ISMEAR = 0
SIGMA = 0.2
ISTART=1

PREC = Normal
ALGO = Normal
LREAL = Auto
EDIFF= 1E-5
EDIFFG= -0.01

NSW = 1
IBRION= 5
NCORE =4
#LCHARG=T
#LAECHG=.TRUE.
#ADDGRID=.TRUE.

#VDW-DFTD3-BJ-PBE
GGA = PE
IVDW = 12
VDW_A1 =0.4289
VDW_A2 =4.4407
VDW_S8 =0.7875

#VIBRASI
NWRITE = 3
ISYM = 0
LEPSIOLON = .TRUE.
POTIM = 0.02
NFREE = 2
