PDB File                                
   1.0000000000000000     
    12.6370000839000003    0.0000000000000000    0.0000000000000000
     6.3176300851000002   11.0044661114999993    0.0000000000000000
     0.0000000000000000    0.0000000000000000   30.0000000000000000
   Mo   S    C    H    O 
    32    64     6     7     1
Selective dynamics
Direct
  0.0831433609589425  0.0837841629623881  0.2597333192666653   F   F   F
  0.3331235647277708  0.0837841629623881  0.2597333192666653   F   F   F
  0.5831037760142053  0.0837841629623881  0.2597333192666653   F   F   F
  0.8331630826550196  0.0837841629623881  0.2597333192666653   F   F   F
  0.0831163972720930  0.3337735831783419  0.2597333192666653   F   F   F
  0.3331757187898603  0.3337735831783419  0.2597333192666653   F   F   F
  0.5831559300762876  0.3337735831783419  0.2597333192666653   F   F   F
  0.8331362008705199  0.3337735831783419  0.2597333192666653   F   F   F
  0.0831685811361567  0.5837629437821334  0.2597333192666653   F   F   F
  0.3331487774665050  0.5837629437821334  0.2597333192666653   F   F   F
  0.5832081436942502  0.5837629437821334  0.2597333192666653   F   F   F
  0.8331883549806847  0.5837629437821334  0.2597333192666653   F   F   F
  0.0832207352196335  0.8337523937132971  0.2597333192666653   F   F   F
  0.3332009315499889  0.8337523937132971  0.2597333192666653   F   F   F
  0.5831812024233471  0.8337523937132971  0.2597333192666653   F   F   F
  0.8332405090641615  0.8337523937132971  0.2597333192666653   F   F   F
  0.0000000000000000  0.0000000000000000  0.0531999990333318   F   F   F
  0.2499802112864344  0.0000000000000000  0.0531999990333318   F   F   F
  0.5000395178481227  0.0000000000000000  0.0531999990333318   F   F   F
  0.7500197291345501  0.0000000000000000  0.0531999990333318   F   F   F
  0.0000521849358606  0.2499894053129168  0.0531999990333318   F   F   F
  0.2500323951144381  0.2499894053129168  0.0531999990333318   F   F   F
  0.5000125765678405  0.2499894053129168  0.0531999990333318   F   F   F
  0.7500719427955858  0.2499894053129168  0.0531999990333318   F   F   F
  0.0000252241552374  0.4999788105349552  0.0531999990333318   F   F   F
  0.2500845492339749  0.4999788105349552  0.0531999990333318   F   F   F
  0.5000647902743083  0.4999788105349552  0.0531999990333318   F   F   F
  0.7500450014816096  0.4999788105349552  0.0531999990333318   F   F   F
  0.0000773779799275  0.7499682307509090  0.0531999990333318   F   F   F
  0.2500575781086525  0.7499682307509090  0.0531999990333318   F   F   F
  0.5001169443363978  0.7499682307509090  0.0531999990333318   F   F   F
  0.7500971555436990  0.7499682307509090  0.0531999990333318   F   F   F
  0.9998636842095223  0.0002726165876297  0.2073333263333339   F   F   F
  0.2498439252419402  0.0002726165876297  0.2073333263333339   F   F   F
  0.4999032616366534  0.0002726165876297  0.2073333263333339   F   F   F
  0.7498834729230879  0.0002726165876297  0.2073333263333339   F   F   F
  0.9999158978251259  0.2502620219914178  0.2073333263333339   F   F   F
  0.2498960942266990  0.2502620219914178  0.2073333263333339   F   F   F
  0.4998762905570544  0.2502620219914178  0.2073333263333339   F   F   F
  0.7499356270309008  0.2502620219914178  0.2073333263333339   F   F   F
  0.9999680519423109  0.5002514720134528  0.2073333263333339   F   F   F
  0.2499482631416967  0.5002514720134528  0.2073333263333339   F   F   F
  0.4999284744281312  0.5002514720134528  0.2073333263333339   F   F   F
  0.7499086857145656  0.5002514720134528  0.2073333263333339   F   F   F
  0.9999411106092921  0.7502408027202918  0.2073333263333339   F   F   F
  0.2499213218878182  0.7502408027202918  0.2073333263333339   F   F   F
  0.4999806582825315  0.7502408027202918  0.2073333263333339   F   F   F
  0.7499608994019908  0.7502408027202918  0.2073333263333339   F   F   F
  0.9999882579143673  0.0001817443917531  0.3122000098333331   F   F   F
  0.2499230653063051  0.0002726165876297  0.3121666610333307   F   F   F
  0.4999369978935704  0.0003634887835062  0.3121666610333307   F   F   F
  0.7498834729230879  0.0002726165876297  0.3121666610333307   F   F   F
  0.9997912645094118  0.2503529190862750  0.3121666610333307   F   F   F
  0.2499752194141109  0.2502620219914178  0.3121333420333343   F   F   F
  0.4999554753313902  0.2502620219914178  0.3122000098333331   F   F   F
  0.7498565315973806  0.2502620219914178  0.3122000098333331   F   F   F
  0.9998888969218669  0.5002514720134528  0.3122000098333331   F   F   F
  0.2499482631416967  0.5002514720134528  0.3122000098333331   F   F   F
  0.4999504387036637  0.5005240440736998  0.3120999932333319   F   F   F
  0.7499423623295556  0.5003423094961477  0.3121666610333307   F   F   F
  0.0000994117002762  0.7502408027202918  0.3122000098333331   F   F   F
  0.2500005066621540  0.7502408027202918  0.3121666610333307   F   F   F
  0.5000715255970007  0.7500590682336110  0.3119666874333333   F   F   F
  0.7499154806145185  0.7503316998151490  0.3121666610333307   F   F   F
  0.0832796544021974  0.0835115537354056  0.0008333333666641   F   F   F
  0.3332598507325528  0.0835115537354056  0.0008333333666641   F   F   F
  0.5832400321859552  0.0835115537354056  0.0008333333666641   F   F   F
  0.8332993984137005  0.0835115537354056  0.0008333333666641   F   F   F
  0.0832526832612004  0.3335009515059255  0.0008333333666641   F   F   F
  0.3333120346119927  0.3335009515059255  0.0008333333666641   F   F   F
  0.5832922458984271  0.3335009515059255  0.0008333333666641   F   F   F
  0.8332724571057284  0.3335009515059255  0.0008333333666641   F   F   F
  0.0833048597178419  0.5834903717218864  0.0008333333666641   F   F   F
  0.3332850634866702  0.5834903717218864  0.0008333333666641   F   F   F
  0.5833443999605166  0.5834903717218864  0.0008333333666641   F   F   F
  0.8333246707547417  0.5834903717218864  0.0008333333666641   F   F   F
  0.0833570361648199  0.8334797620408878  0.0008333333666641   F   F   F
  0.3333372473721212  0.8334797620408878  0.0008333333666641   F   F   F
  0.5833175182454866  0.8334797620408878  0.0008333333666641   F   F   F
  0.8333768248863009  0.8334797620408878  0.0008333333666641   F   F   F
  0.0832796544021974  0.0835115537354056  0.1055999994333305   F   F   F
  0.3332598507325528  0.0835115537354056  0.1055999994333305   F   F   F
  0.5832400321859552  0.0835115537354056  0.1055999994333305   F   F   F
  0.8332993984137005  0.0835115537354056  0.1055999994333305   F   F   F
  0.0832526832612004  0.3335009515059255  0.1055999994333305   F   F   F
  0.3333120346119927  0.3335009515059255  0.1055999994333305   F   F   F
  0.5832922458984271  0.3335009515059255  0.1055999994333305   F   F   F
  0.8332724571057284  0.3335009515059255  0.1055999994333305   F   F   F
  0.0833048597178419  0.5834903717218864  0.1055999994333305   F   F   F
  0.3332850634866702  0.5834903717218864  0.1055999994333305   F   F   F
  0.5833443999605166  0.5834903717218864  0.1055999994333305   F   F   F
  0.8333246707547417  0.5834903717218864  0.1055999994333305   F   F   F
  0.0833570361648199  0.8334797620408878  0.1055999994333305   F   F   F
  0.3333372473721212  0.8334797620408878  0.1055999994333305   F   F   F
  0.5833175182454866  0.8334797620408878  0.1055999994333305   F   F   F
  0.8333768248863009  0.8334797620408878  0.1055999994333305   F   F   F
  0.5592849850821793  0.3707585632651700  0.4153666794333333   F   F   F
  0.6258636713191876  0.4316429197810976  0.4138333201333353   F   F   F
  0.5642637014708427  0.5585005283061619  0.4121333360666668   F   F   F
  0.4367634654134918  0.6243828535052316  0.4117999970999975   F   F   F
  0.3708647191396963  0.5627714991577975  0.4129000008000006   F   F   F
  0.4317862986925434  0.4360047877275903  0.4145999849000006   F   F   F
  0.7253887653777795  0.3786644339469944  0.4137333333333331   F   F   F
  0.6163129806505552  0.6060267091041069  0.4109666943666639   F   F   F
  0.3889067173263072  0.7234335541894694  0.4104666710000018   F   F   F
  0.2712312340827339  0.6137508154022910  0.4123666882666654   F   F   F
  0.3818105459580181  0.3863885700512597  0.4151000082333312   F   F   F
  0.6359559298047657  0.2139131575442832  0.4455666542000003   F   F   F
  0.6391155719373955  0.2066433727869423  0.3869666755333299   F   F   F
  0.6204893588935931  0.2439009696431498  0.4150666594666674   F   F   F

  0.00000000E+00  0.00000000E+00  0.00000000E+00
  0.00000000E+00  0.00000000E+00  0.00000000E+00
  0.00000000E+00  0.00000000E+00  0.00000000E+00
  0.00000000E+00  0.00000000E+00  0.00000000E+00
  0.00000000E+00  0.00000000E+00  0.00000000E+00
  0.00000000E+00  0.00000000E+00  0.00000000E+00
  0.00000000E+00  0.00000000E+00  0.00000000E+00
  0.00000000E+00  0.00000000E+00  0.00000000E+00
  0.00000000E+00  0.00000000E+00  0.00000000E+00
  0.00000000E+00  0.00000000E+00  0.00000000E+00
  0.00000000E+00  0.00000000E+00  0.00000000E+00
  0.00000000E+00  0.00000000E+00  0.00000000E+00
  0.00000000E+00  0.00000000E+00  0.00000000E+00
  0.00000000E+00  0.00000000E+00  0.00000000E+00
  0.00000000E+00  0.00000000E+00  0.00000000E+00
  0.00000000E+00  0.00000000E+00  0.00000000E+00
  0.00000000E+00  0.00000000E+00  0.00000000E+00
  0.00000000E+00  0.00000000E+00  0.00000000E+00
  0.00000000E+00  0.00000000E+00  0.00000000E+00
  0.00000000E+00  0.00000000E+00  0.00000000E+00
  0.00000000E+00  0.00000000E+00  0.00000000E+00
  0.00000000E+00  0.00000000E+00  0.00000000E+00
  0.00000000E+00  0.00000000E+00  0.00000000E+00
  0.00000000E+00  0.00000000E+00  0.00000000E+00
  0.00000000E+00  0.00000000E+00  0.00000000E+00
  0.00000000E+00  0.00000000E+00  0.00000000E+00
  0.00000000E+00  0.00000000E+00  0.00000000E+00
  0.00000000E+00  0.00000000E+00  0.00000000E+00
  0.00000000E+00  0.00000000E+00  0.00000000E+00
  0.00000000E+00  0.00000000E+00  0.00000000E+00
  0.00000000E+00  0.00000000E+00  0.00000000E+00
  0.00000000E+00  0.00000000E+00  0.00000000E+00
  0.00000000E+00  0.00000000E+00  0.00000000E+00
  0.00000000E+00  0.00000000E+00  0.00000000E+00
  0.00000000E+00  0.00000000E+00  0.00000000E+00
  0.00000000E+00  0.00000000E+00  0.00000000E+00
  0.00000000E+00  0.00000000E+00  0.00000000E+00
  0.00000000E+00  0.00000000E+00  0.00000000E+00
  0.00000000E+00  0.00000000E+00  0.00000000E+00
  0.00000000E+00  0.00000000E+00  0.00000000E+00
  0.00000000E+00  0.00000000E+00  0.00000000E+00
  0.00000000E+00  0.00000000E+00  0.00000000E+00
  0.00000000E+00  0.00000000E+00  0.00000000E+00
  0.00000000E+00  0.00000000E+00  0.00000000E+00
  0.00000000E+00  0.00000000E+00  0.00000000E+00
  0.00000000E+00  0.00000000E+00  0.00000000E+00
  0.00000000E+00  0.00000000E+00  0.00000000E+00
  0.00000000E+00  0.00000000E+00  0.00000000E+00
  0.00000000E+00  0.00000000E+00  0.00000000E+00
  0.00000000E+00  0.00000000E+00  0.00000000E+00
  0.00000000E+00  0.00000000E+00  0.00000000E+00
  0.00000000E+00  0.00000000E+00  0.00000000E+00
  0.00000000E+00  0.00000000E+00  0.00000000E+00
  0.00000000E+00  0.00000000E+00  0.00000000E+00
  0.00000000E+00  0.00000000E+00  0.00000000E+00
  0.00000000E+00  0.00000000E+00  0.00000000E+00
  0.00000000E+00  0.00000000E+00  0.00000000E+00
  0.00000000E+00  0.00000000E+00  0.00000000E+00
  0.00000000E+00  0.00000000E+00  0.00000000E+00
  0.00000000E+00  0.00000000E+00  0.00000000E+00
  0.00000000E+00  0.00000000E+00  0.00000000E+00
  0.00000000E+00  0.00000000E+00  0.00000000E+00
  0.00000000E+00  0.00000000E+00  0.00000000E+00
  0.00000000E+00  0.00000000E+00  0.00000000E+00
  0.00000000E+00  0.00000000E+00  0.00000000E+00
  0.00000000E+00  0.00000000E+00  0.00000000E+00
  0.00000000E+00  0.00000000E+00  0.00000000E+00
  0.00000000E+00  0.00000000E+00  0.00000000E+00
  0.00000000E+00  0.00000000E+00  0.00000000E+00
  0.00000000E+00  0.00000000E+00  0.00000000E+00
  0.00000000E+00  0.00000000E+00  0.00000000E+00
  0.00000000E+00  0.00000000E+00  0.00000000E+00
  0.00000000E+00  0.00000000E+00  0.00000000E+00
  0.00000000E+00  0.00000000E+00  0.00000000E+00
  0.00000000E+00  0.00000000E+00  0.00000000E+00
  0.00000000E+00  0.00000000E+00  0.00000000E+00
  0.00000000E+00  0.00000000E+00  0.00000000E+00
  0.00000000E+00  0.00000000E+00  0.00000000E+00
  0.00000000E+00  0.00000000E+00  0.00000000E+00
  0.00000000E+00  0.00000000E+00  0.00000000E+00
  0.00000000E+00  0.00000000E+00  0.00000000E+00
  0.00000000E+00  0.00000000E+00  0.00000000E+00
  0.00000000E+00  0.00000000E+00  0.00000000E+00
  0.00000000E+00  0.00000000E+00  0.00000000E+00
  0.00000000E+00  0.00000000E+00  0.00000000E+00
  0.00000000E+00  0.00000000E+00  0.00000000E+00
  0.00000000E+00  0.00000000E+00  0.00000000E+00
  0.00000000E+00  0.00000000E+00  0.00000000E+00
  0.00000000E+00  0.00000000E+00  0.00000000E+00
  0.00000000E+00  0.00000000E+00  0.00000000E+00
  0.00000000E+00  0.00000000E+00  0.00000000E+00
  0.00000000E+00  0.00000000E+00  0.00000000E+00
  0.00000000E+00  0.00000000E+00  0.00000000E+00
  0.00000000E+00  0.00000000E+00  0.00000000E+00
  0.00000000E+00  0.00000000E+00  0.00000000E+00
  0.00000000E+00  0.00000000E+00  0.00000000E+00
  0.00000000E+00  0.00000000E+00  0.00000000E+00
  0.00000000E+00  0.00000000E+00  0.00000000E+00
  0.00000000E+00  0.00000000E+00  0.00000000E+00
  0.00000000E+00  0.00000000E+00  0.00000000E+00
  0.00000000E+00  0.00000000E+00  0.00000000E+00
  0.00000000E+00  0.00000000E+00  0.00000000E+00
  0.00000000E+00  0.00000000E+00  0.00000000E+00
  0.00000000E+00  0.00000000E+00  0.00000000E+00
  0.00000000E+00  0.00000000E+00  0.00000000E+00
  0.00000000E+00  0.00000000E+00  0.00000000E+00
  0.00000000E+00  0.00000000E+00  0.00000000E+00
  0.00000000E+00  0.00000000E+00  0.00000000E+00
  0.00000000E+00  0.00000000E+00  0.00000000E+00
  0.00000000E+00  0.00000000E+00  0.00000000E+00
