                                        
   1.0000000000000000     
    40.0000000000000000    0.0000000000000000    0.0000000000000000
     6.3000001906999996   10.9119204179999993    0.0000000000000000
     0.0000000000000000    0.0000000000000000   12.3000001906999987
   Mo   S    H    C    O 
    32    67     7     6     1
Selective dynamics
Direct
  0.1842289567175257  0.0815621763087506  0.7499999999979678   F F F
  0.2634673499766864  0.8318494020683114  0.7569366774501343   F F F
  0.2641715389327721  0.5809231770785325  0.7480871462083879   F F F
  0.2642287529742541  0.3345053720222476  0.7507591860594105   F F F
  0.2641288315441846  0.0775413342616827  0.7474651321889407   F F F
  0.1842280775183056  0.8315677047123415  0.7499999999979678   F F F
  0.1842283755558043  0.5815658569624276  0.7499999999979678   F F F
  0.1842286735682990  0.3315640092125136  0.7499999999979678   F F F
  0.0524949990148542  0.1666984259708713  0.2500000000264251   F F F
  0.1050038412225121  0.8333088755853097  0.7499999999979678   F F F
  0.1050044298065345  0.3333052098694296  0.7499999999979678   F F F
  0.0524947084433265  0.4167002439368446  0.2500000000264251   F F F
  0.0524944216058358  0.6667020916867514  0.2500000000264251   F F F
  0.0524941272933361  0.9167039394366654  0.2500000000264251   F F F
  0.1312450021648530  0.1666984259708713  0.2500000000264251   F F F
  0.1312447041183304  0.4167002439368446  0.2500000000264251   F F F
  0.1312444210058317  0.6667020916867514  0.2500000000264251   F F F
  0.1312441229933370  0.9167039394366654  0.2500000000264251   F F F
  0.2102421522172833  0.1662402153343834  0.2500000000264251   F F F
  0.2102418691101917  0.4162420332087109  0.2500000000264251   F F F
  0.1050041392350067  0.5833070278354029  0.7499999999979678   F F F
  0.2102416008636681  0.6662438511746842  0.2500000000264251   F F F
  0.2903658278866984  0.1794828890000968  0.2483438937488814   T T T
  0.2871513752762241  0.4071024884213785  0.2478538351437532   T T T
  0.2868202834913207  0.6832478152806037  0.2500413885823902   T T T
  0.2899736680374077  0.9014397160742096  0.2505294732570796   T T T
  0.0262547172530532  0.0833033919034563  0.7499999999979678   F F F
  0.0262544285565340  0.3333052098694296  0.7499999999979678   F F F
  0.0262541398350109  0.5833070278354029  0.7499999999979678   F F F
  0.0262538492725142  0.8333088755853097  0.7499999999979678   F F F
  0.1050047129530540  0.0833033919034563  0.7499999999979678   F F F
  0.2102413028511734  0.9162456989245982  0.2500000000264251   F F F
  0.0262544285565340  0.3333052098694296  0.1209756135715381   F F F
  0.1312450021648530  0.1666984259708713  0.6209756136243882   F F F
  0.1312447041183304  0.4167002439368446  0.6209756136243882   F F F
  0.1312444210058317  0.6667020916867514  0.6209756136243882   F F F
  0.1312441229933370  0.9167039394366654  0.6209756136243882   F F F
  0.2117656618212180  0.1627577841449792  0.6238211393526285   F F F
  0.2117653638087234  0.4127596318948861  0.6238211393526285   F F F
  0.2117650657871977  0.6627614498608594  0.6238211393526285   F F F
  0.2117647826710822  0.9127632379512463  0.6238211393526285   F F F
  0.2979368965874146  0.1531120038835586  0.6411036900416278   F F F
  0.2903033512713970  0.4161558506162083  0.6228289481012919   F F F
  0.2925437057938080  0.6603266846267027  0.6314403230536977   F F F
  0.2906884405600814  0.9144912338455229  0.6269038328104818   F F F
  0.3439643086653069  0.2259507978229605  0.2406606879282631   T T T
  0.3445087692547406  0.6831460093587983  0.2594213776548384   T T T
  0.0524941272933361  0.9167039394366654  0.6209756136243882   F F F
  0.3379847161182866  0.9637691975043288  0.2499755234509368   T T T
  0.2620450670276126  0.3329396784507999  0.3830148011348770   F F F
  0.2652691852831934  0.0806925971072170  0.3712150278779477   F F F
  0.1837538480725129  0.8333088755853097  0.3790243864000047   F F F
  0.1837541311850117  0.5833070278354029  0.3790243864000047   F F F
  0.1837544143315313  0.3333052098694296  0.3790243864000047   F F F
  0.1837547123530570  0.0833033919034563  0.3790243864000047   F F F
  0.1050038412225121  0.8333088755853097  0.3790243864000047   F F F
  0.1050041392350067  0.5833070278354029  0.3790243864000047   F F F
  0.1050044298065345  0.3333052098694296  0.3790243864000047   F F F
  0.1050047129530540  0.0833033919034563  0.3790243864000047   F F F
  0.0262538492725142  0.8333088755853097  0.3790243864000047   F F F
  0.0262541398350109  0.5833070278354029  0.3790243864000047   F F F
  0.0262544285565340  0.3333052098694296  0.3790243864000047   F F F
  0.0262547172530532  0.0833033919034563  0.3790243864000047   F F F
  0.2661304558245270  0.5780980453697269  0.3732134823737225   F F F
  0.0262547172530532  0.0833033919034563  0.1209756135715381   F F F
  0.0524944216058358  0.6667020916867514  0.6209756136243882   F F F
  0.0524949990148542  0.1666984259708713  0.6209756136243882   F F F
  0.0262541398350109  0.5833070278354029  0.1209756135715381   F F F
  0.0262538492725142  0.8333088755853097  0.1209756135715381   F F F
  0.1050047129530540  0.0833033919034563  0.1209756135715381   F F F
  0.1050044298065345  0.3333052098694296  0.1209756135715381   F F F
  0.1050041392350067  0.5833070278354029  0.1209756135715381   F F F
  0.1050038412225121  0.8333088755853097  0.1209756135715381   F F F
  0.1838517167265100  0.0836092187931064  0.1236486369540615   F F F
  0.2611620724092347  0.8370662331749443  0.3851219415900218   F F F
  0.1837541311850117  0.5833070278354029  0.1209756135715381   F F F
  0.1838087550412725  0.8321436795391909  0.1237538810422768   F F F
  0.2650952804711764  0.0798567373731815  0.1280826949305218   F F F
  0.2611627303583520  0.3338533229586629  0.1144824596616205   F F F
  0.2657633541939585  0.5793749604574713  0.1250392105923648   T T T
  0.2612265050345215  0.8369746207949262  0.1151219531744943   F F F
  0.0524947084433265  0.4167002439368446  0.6209756136243882   F F F
  0.0524949990148542  0.1666984259708713  0.8790243863715475   F F F
  0.0524944216058358  0.6667020916867514  0.8790243863715475   F F F
  0.0524941272933361  0.9167039394366654  0.8790243863715475   F F F
  0.1312450021648530  0.1666984259708713  0.8790243863715475   F F F
  0.1312447041183304  0.4167002439368446  0.8790243863715475   F F F
  0.1312444210058317  0.6667020916867514  0.8790243863715475   F F F
  0.1312441229933370  0.9167039394366654  0.8790243863715475   F F F
  0.2117656618212180  0.1627577841449792  0.8761788606433072   F F F
  0.2117653638087234  0.4127596318948861  0.8761788606433072   F F F
  0.2117650657871977  0.6627614498608594  0.8761788606433072   F F F
  0.2096733824990526  0.9159441895431364  0.8776871359765619   F F F
  0.2981310683322668  0.1514038581949464  0.8570367427078426   F F F
  0.2903574615516222  0.4132711543168863  0.8757260343452419   F F F
  0.2915689101224689  0.6636552106467403  0.8754284653292467   F F F
  0.2899915873978927  0.9138630033032911  0.8774796724117593   F F F
  0.0524947084433265  0.4167002439368446  0.8790243863715475   F F F
  0.1837544143315313  0.3333052098694296  0.1209756135715381   F F F
  0.4993506451463825  0.3784740108365027  0.2264903556747590   F F F
  0.4297873693142596  0.5023875262565028  0.2767711687972060   T T T
  0.5281866495134110  0.1558297452650091  0.1855325310393837   T T T
  0.3692496837107145  0.5180692557539656  0.2875965877511610   T T T
  0.3639803831335200  0.3919233114136610  0.2757924793509506   T T T
  0.4872561153995615  0.0588376629667314  0.1904910397419158   T T T
  0.4180447115466981  0.1807586598223673  0.2446646506801037   T T T
  0.4817511084230649  0.3342650567445385  0.2304439829157563   T T T
  0.4429132409984918  0.4045790491317630  0.2599370127063141   T T T
  0.4977523306923565  0.2101807147509106  0.2066592863859268   T T T
  0.4214373234751447  0.3464487449094758  0.2636546962476302   T T T
  0.4748317213207950  0.1560699771572414  0.2108435852452109   T T T
  0.4361122866728081  0.2230143416952722  0.2410453113504195   T T T
  0.3822895487207248  0.4193251290414212  0.3009525769230312   T T T

  0.00000000E+00  0.00000000E+00  0.00000000E+00
  0.00000000E+00  0.00000000E+00  0.00000000E+00
  0.00000000E+00  0.00000000E+00  0.00000000E+00
  0.00000000E+00  0.00000000E+00  0.00000000E+00
  0.00000000E+00  0.00000000E+00  0.00000000E+00
  0.00000000E+00  0.00000000E+00  0.00000000E+00
  0.00000000E+00  0.00000000E+00  0.00000000E+00
  0.00000000E+00  0.00000000E+00  0.00000000E+00
  0.00000000E+00  0.00000000E+00  0.00000000E+00
  0.00000000E+00  0.00000000E+00  0.00000000E+00
  0.00000000E+00  0.00000000E+00  0.00000000E+00
  0.00000000E+00  0.00000000E+00  0.00000000E+00
  0.00000000E+00  0.00000000E+00  0.00000000E+00
  0.00000000E+00  0.00000000E+00  0.00000000E+00
  0.00000000E+00  0.00000000E+00  0.00000000E+00
  0.00000000E+00  0.00000000E+00  0.00000000E+00
  0.00000000E+00  0.00000000E+00  0.00000000E+00
  0.00000000E+00  0.00000000E+00  0.00000000E+00
  0.00000000E+00  0.00000000E+00  0.00000000E+00
  0.00000000E+00  0.00000000E+00  0.00000000E+00
  0.00000000E+00  0.00000000E+00  0.00000000E+00
  0.00000000E+00  0.00000000E+00  0.00000000E+00
  0.00000000E+00  0.00000000E+00  0.00000000E+00
  0.00000000E+00  0.00000000E+00  0.00000000E+00
  0.00000000E+00  0.00000000E+00  0.00000000E+00
  0.00000000E+00  0.00000000E+00  0.00000000E+00
  0.00000000E+00  0.00000000E+00  0.00000000E+00
  0.00000000E+00  0.00000000E+00  0.00000000E+00
  0.00000000E+00  0.00000000E+00  0.00000000E+00
  0.00000000E+00  0.00000000E+00  0.00000000E+00
  0.00000000E+00  0.00000000E+00  0.00000000E+00
  0.00000000E+00  0.00000000E+00  0.00000000E+00
  0.00000000E+00  0.00000000E+00  0.00000000E+00
  0.00000000E+00  0.00000000E+00  0.00000000E+00
  0.00000000E+00  0.00000000E+00  0.00000000E+00
  0.00000000E+00  0.00000000E+00  0.00000000E+00
  0.00000000E+00  0.00000000E+00  0.00000000E+00
  0.00000000E+00  0.00000000E+00  0.00000000E+00
  0.00000000E+00  0.00000000E+00  0.00000000E+00
  0.00000000E+00  0.00000000E+00  0.00000000E+00
  0.00000000E+00  0.00000000E+00  0.00000000E+00
  0.00000000E+00  0.00000000E+00  0.00000000E+00
  0.00000000E+00  0.00000000E+00  0.00000000E+00
  0.00000000E+00  0.00000000E+00  0.00000000E+00
  0.00000000E+00  0.00000000E+00  0.00000000E+00
  0.00000000E+00  0.00000000E+00  0.00000000E+00
  0.00000000E+00  0.00000000E+00  0.00000000E+00
  0.00000000E+00  0.00000000E+00  0.00000000E+00
  0.00000000E+00  0.00000000E+00  0.00000000E+00
  0.00000000E+00  0.00000000E+00  0.00000000E+00
  0.00000000E+00  0.00000000E+00  0.00000000E+00
  0.00000000E+00  0.00000000E+00  0.00000000E+00
  0.00000000E+00  0.00000000E+00  0.00000000E+00
  0.00000000E+00  0.00000000E+00  0.00000000E+00
  0.00000000E+00  0.00000000E+00  0.00000000E+00
  0.00000000E+00  0.00000000E+00  0.00000000E+00
  0.00000000E+00  0.00000000E+00  0.00000000E+00
  0.00000000E+00  0.00000000E+00  0.00000000E+00
  0.00000000E+00  0.00000000E+00  0.00000000E+00
  0.00000000E+00  0.00000000E+00  0.00000000E+00
  0.00000000E+00  0.00000000E+00  0.00000000E+00
  0.00000000E+00  0.00000000E+00  0.00000000E+00
  0.00000000E+00  0.00000000E+00  0.00000000E+00
  0.00000000E+00  0.00000000E+00  0.00000000E+00
  0.00000000E+00  0.00000000E+00  0.00000000E+00
  0.00000000E+00  0.00000000E+00  0.00000000E+00
  0.00000000E+00  0.00000000E+00  0.00000000E+00
  0.00000000E+00  0.00000000E+00  0.00000000E+00
  0.00000000E+00  0.00000000E+00  0.00000000E+00
  0.00000000E+00  0.00000000E+00  0.00000000E+00
  0.00000000E+00  0.00000000E+00  0.00000000E+00
  0.00000000E+00  0.00000000E+00  0.00000000E+00
  0.00000000E+00  0.00000000E+00  0.00000000E+00
  0.00000000E+00  0.00000000E+00  0.00000000E+00
  0.00000000E+00  0.00000000E+00  0.00000000E+00
  0.00000000E+00  0.00000000E+00  0.00000000E+00
  0.00000000E+00  0.00000000E+00  0.00000000E+00
  0.00000000E+00  0.00000000E+00  0.00000000E+00
  0.00000000E+00  0.00000000E+00  0.00000000E+00
  0.00000000E+00  0.00000000E+00  0.00000000E+00
  0.00000000E+00  0.00000000E+00  0.00000000E+00
  0.00000000E+00  0.00000000E+00  0.00000000E+00
  0.00000000E+00  0.00000000E+00  0.00000000E+00
  0.00000000E+00  0.00000000E+00  0.00000000E+00
  0.00000000E+00  0.00000000E+00  0.00000000E+00
  0.00000000E+00  0.00000000E+00  0.00000000E+00
  0.00000000E+00  0.00000000E+00  0.00000000E+00
  0.00000000E+00  0.00000000E+00  0.00000000E+00
  0.00000000E+00  0.00000000E+00  0.00000000E+00
  0.00000000E+00  0.00000000E+00  0.00000000E+00
  0.00000000E+00  0.00000000E+00  0.00000000E+00
  0.00000000E+00  0.00000000E+00  0.00000000E+00
  0.00000000E+00  0.00000000E+00  0.00000000E+00
  0.00000000E+00  0.00000000E+00  0.00000000E+00
  0.00000000E+00  0.00000000E+00  0.00000000E+00
  0.00000000E+00  0.00000000E+00  0.00000000E+00
  0.00000000E+00  0.00000000E+00  0.00000000E+00
  0.00000000E+00  0.00000000E+00  0.00000000E+00
  0.00000000E+00  0.00000000E+00  0.00000000E+00
  0.00000000E+00  0.00000000E+00  0.00000000E+00
  0.00000000E+00  0.00000000E+00  0.00000000E+00
  0.00000000E+00  0.00000000E+00  0.00000000E+00
  0.00000000E+00  0.00000000E+00  0.00000000E+00
  0.00000000E+00  0.00000000E+00  0.00000000E+00
  0.00000000E+00  0.00000000E+00  0.00000000E+00
  0.00000000E+00  0.00000000E+00  0.00000000E+00
  0.00000000E+00  0.00000000E+00  0.00000000E+00
  0.00000000E+00  0.00000000E+00  0.00000000E+00
  0.00000000E+00  0.00000000E+00  0.00000000E+00
  0.00000000E+00  0.00000000E+00  0.00000000E+00
  0.00000000E+00  0.00000000E+00  0.00000000E+00
  0.00000000E+00  0.00000000E+00  0.00000000E+00
  0.00000000E+00  0.00000000E+00  0.00000000E+00
