PDB File
1.0
       15.0000000000         0.0000000000         0.0000000000
        0.0000000000        15.0000000000         0.0000000000
        0.0000000000         0.0000000000        15.0000000000
    H    C    O
    7    6    1
Selective dynamics
Cartesian
     6.501818150         5.347343087         7.437980622 F F F
     9.003897607         5.342565179         7.458505332 F F F
    10.249401033         7.499788105         7.449630797 F F F 
     9.003846645         9.656977952         7.456592023 F F F 
     6.501490921         9.652180374         7.436521947 F F F 
     4.602081478         7.482704669         8.271834254 F F F 
     4.727377743         7.439986020         6.439416111 F F F 
     6.372705996         7.499928474         7.448572218 F F F 
     7.063396722         6.284121573         7.445701361 F F F 
     8.459986746         6.289897710         7.448607981 F F F 
     9.158621728         7.499695569         7.445150614 F F F 
     8.459881246         8.709716499         7.446789443 F F F 
     7.063174099         8.715278506         7.443740219 F F F 
     4.980999827         7.500999570         7.375000119 F F F 
