SYSTEM = vacancy-relaks-vibrasi
GGA = PE
LREAL = Auto
PREC = Normal
ALGO = Fast
ENCUT = 400
ISMEAR = 0
SIGMA = 0.2
ISPIN = 2
IBRION = 5
NSW = 1 
NCORE = 4
ISTART = 1
EDIFF = 1E-5
EDIFFG -0.01
LEPSILON = .TRUE.
NWRITE = 3
ISYM = 0
NFREE = 2
POTIM = 0.02

#VDW-DFTD3-BJ-PBE
IVDW = 12
VDW_A1 =0.4289
VDW_A2 =4.4407
VDW_S8 =0.7875
