Gamma point only
 0
Monkhorst Pack
 1 3 3
 0 0 0 
