PDB File
1.0
       40.0000000000         0.0000000000         0.0000000000
        6.3000001907        10.9119204180         0.0000000000
        0.0000000000         0.0000000000        12.3000001907
   Mo    S    O    H    C
   32   68    1    7    6
Cartesian
     3.150000076         1.818999958         3.075000048	F F F
     4.724999954         4.546999900         3.075000048	F F F
     6.300000169         7.275000167         3.075000048	F F F
     7.875000085        10.003000434         3.075000048	F F F
     6.300000202         1.818999958         3.075000048	F F F
     7.874999781         4.546999900         3.075000048	F F F
     9.450000145         7.275000167         3.075000048	F F F
    11.024999913        10.003000434         3.075000048	F F F
     9.456999477         1.814000000         3.075000048	F F F
    11.031999653         4.541999941         3.075000048	F F F
    12.607000424         7.269999883         3.075000048	F F F
    14.182000192         9.998000150         3.075000048	F F F
    12.673000083         1.766000070         3.075000048	F F F
    14.248000149         4.498000304         3.075000048	F F F
    15.823000623         7.222000279         3.075000048	F F F
    17.398000688         9.954000513         3.075000048	F F F
     1.575000075         0.908999983         9.225000143	F F F
     3.150000028         3.636999925         9.225000143	F F F
     4.724999980         6.364999867         9.225000143	F F F
     6.300000046         9.093000134         9.225000143	F F F
     4.724999903         0.908999983         9.225000143	F F F
     6.300000078         3.636999925         9.225000143	F F F
     7.874999956         6.364999867         9.225000143	F F F
     9.449999724         9.093000134         9.225000143	F F F
     7.882999995         0.889999977         9.225000143	F F F
     9.458000264         3.618000082         9.225000143	F F F
    11.033000032         6.346000349         9.225000143	F F F
    12.607999799         9.074000616         9.225000143	F F F
    11.085000513         0.847999999         9.225000143	F F F
    12.660000187         3.576000103         9.225000143	F F F
    14.234999767         6.304000045         9.225000143	F F F
    15.810000351         9.031999661         9.225000143	F F F
     1.575000075         0.908999983         4.662000025	F F F
     3.150000028         3.636999925         4.662000025	F F F
     4.724999980         6.364999867         4.662000025	F F F
     6.300000046         9.093000134         4.662000025	F F F
     4.724999903         0.908999983         4.662000025	F F F
     6.300000078         3.636999925         4.662000025	F F F
     7.874999956         6.364999867         4.662000025	F F F
     9.449999724         9.093000134         4.662000025	F F F
     7.874999879         0.908999983         4.662000025	F F F
     9.449999459         3.636999925         4.662000025	F F F
    11.024999634         6.364999867         4.662000025	F F F
    12.599999998         9.093000134         4.662000025	F F F
    11.074000170         0.874000028         4.656000031	F F F
    12.649000711         3.601000222         4.653999666	F F F
    14.224000475         6.329999830         4.656000031	F F F
    15.799000058         9.057000431         4.653999666	F F F
     1.575000075         0.908999983         1.488000070	F F F
     3.150000028         3.636999925         1.488000070	F F F
     4.724999980         6.364999867         1.488000070	F F F
     6.300000046         9.093000134         1.488000070	F F F
     4.724999903         0.908999983         1.488000070	F F F
     6.300000078         3.636999925         1.488000070	F F F
     7.874999956         6.364999867         1.488000070	F F F
     9.449999724         9.093000134         1.488000070	F F F
     7.874999879         0.908999983         1.488000070	F F F
     9.449999459         3.636999925         1.488000070	F F F
    11.024999634         6.364999867         1.488000070	F F F
    12.599999998         9.093000134         1.488000070	F F F
    11.074000170         0.874000028         1.493999973	F F F
    12.649000711         3.601000222         1.496000063	F F F
    14.224000475         6.329999830         1.493999973	F F F
    15.799000058         9.057000431         1.496000063	F F F
     3.150000076         1.818999958        10.812000120	F F F
     4.724999954         4.546999900        10.812000120	F F F
     6.300000169         7.275000167        10.812000120	F F F
     7.875000085        10.003000434        10.812000120	F F F
     6.300000202         1.818999958        10.812000120	F F F
     7.874999781         4.546999900        10.812000120	F F F
     9.450000145         7.275000167        10.812000120	F F F
    11.024999913        10.003000434        10.812000120	F F F
     9.496000544         1.775999988        10.777000153	F F F
    11.071000312         4.504000255        10.777000153	F F F
    12.645999892         7.232000197        10.777000153	F F F
    14.220999880         9.959999813        10.777000153	F F F
    12.725000160         1.715000003        10.724000203	F F F
    14.298000506         4.442999782        10.725000202	F F F
    15.875000417         7.170999724        10.724000203	F F F
    17.447999853         9.898999991        10.725000202	F F F
     3.150000076         1.818999958         7.638000166	F F F
     4.724999954         4.546999900         7.638000166	F F F
     6.300000169         7.275000167         7.638000166	F F F
     7.875000085        10.003000434         7.638000166	F F F
     6.300000202         1.818999958         7.638000166	F F F
     7.874999781         4.546999900         7.638000166	F F F
     9.450000145         7.275000167         7.638000166	F F F
    11.024999913        10.003000434         7.638000166	F F F
     9.496000544         1.775999988         7.673000133	F F F
    11.071000312         4.504000255         7.673000133	F F F
    12.645999892         7.232000197         7.673000133	F F F
    14.220999880         9.959999813         7.673000133	F F F
    12.725000160         1.715000003         7.726000083	F F F
    14.298000506         4.442999782         7.725000084	F F F
    15.875000417         7.170999724         7.726000083	F F F
    17.447999853         9.898999991         7.725000084	F F F
    15.004999929         2.240999893         3.075000048	F F F
    16.579999602         4.968999997         3.075000048	F F F
    18.155000374         7.696999939         3.075000048	F F F
    19.730000142        10.425000206         3.075000048	F F F
    20.933999505         7.612999981         3.109000016	F F F
    20.554001354         8.470000393         3.125000001	F F F
    20.573999582         6.709999949         3.089000035	F F F
    26.212999083         7.574999644         2.987999946	F F F
    24.914000233         7.640000084         0.860000018	F F F
    22.410999736         7.640000084         0.927999954	F F F
    25.011998010         7.521999756         5.170999914	F F F
    22.509001017         7.524000390         5.218999869	F F F
    23.052000410         7.536999958         4.271999658	F F F
    24.447999901         7.540999925         4.236000058	F F F
    25.122998477         7.571999994         3.012000107	F F F
    24.393999215         7.607000031         1.820000125	F F F
    22.997000005         7.601000080         1.848000099	F F F
    22.329999478         7.558000110         3.076000047	F F F
