PDB File
1.0
       12.6370000839         0.0000000000         0.0000000000
        6.3176300851        11.0044661115         0.0000000000
        0.0000000000         0.0000000000        30.0000000000
   Mo    S    C    H    O
   32   64    6    7    1
Selective dynamics
Cartesian
     1.580000008         0.921999982         7.791999578	F F F
     4.738999864         0.921999982         7.791999578	F F F
     7.897999815         0.921999982         7.791999578	F F F
    11.057999294         0.921999982         7.791999578	F F F
     3.158999950         3.673000085         7.791999578	F F F
     6.318999617         3.673000085         7.791999578	T T T
     9.477999568         3.673000085         7.791999578	T T T
    12.637000271         3.673000085         7.791999578	T T T
     4.738999703         6.423999532         7.791999578	F F F
     7.897999465         6.423999532         7.791999578	T T T
    11.057999697         6.423999532         7.791999578	T T T
    14.216999648         6.423999532         7.791999578	F F F
     6.318999644         9.174999962         7.791999578	F F F
     9.477999406         9.174999962         7.791999578	F F F
    12.637000110         9.174999962         7.791999578	F F F
    15.796999589         9.174999962         7.791999578	F F F
     0.000000000         0.000000000         1.595999971	F F F
     3.158999951         0.000000000         1.595999971	F F F
     6.318999429         0.000000000         1.595999971	F F F
     9.477999380         0.000000000         1.595999971	F F F
     1.580000049         2.750999939         1.595999971	F F F
     4.738999986         2.750999939         1.595999971	F F F
     7.897999560         2.750999939         1.595999971	F F F
    11.057999792         2.750999939         1.595999971	F F F
     3.158999933         5.501999877         1.595999971	F F F
     6.318999645         5.501999877         1.595999971	F F F
     9.477999972         5.501999877         1.595999971	F F F
    12.636999922         5.501999877         1.595999971	F F F
     4.738999683         8.252999980         1.595999971	F F F
     7.897999493         8.252999980         1.595999971	F F F
    11.057999725         8.252999980         1.595999971	F F F
    14.216999675         8.252999980         1.595999971	F F F
    12.636999752         0.003000000         6.219999790	F F F
     3.158999995         0.003000000         6.219999790	F F F
     6.318999850         0.003000000         6.219999790	F F F
     9.477999801         0.003000000         6.219999790	F F F
    14.217000164         2.753999940         6.219999790	F F F
     4.738999843         2.753999940         6.219999790	F F F
     7.897999605         2.753999940         6.219999790	F F F
    11.057999461         2.753999940         6.219999790	F F F
    15.797000106         5.505000371         6.219999790	F F F
     6.318999972         5.505000371         6.219999790	F F F
     9.477999923         5.505000371         6.219999790	F F F
    12.636999874         5.505000371         6.219999790	F F F
    17.375999765         8.255999489         6.219999790	F F F
     7.897999632         8.255999489         6.219999790	F F F
    11.057999487         8.255999489         6.219999790	F F F
    14.216999815         8.255999489         6.219999790	F F F
    12.637999893         0.002000000         9.366000295	F F F
     3.160000088         0.003000000         9.364999831	F F F
     6.320000272         0.004000000         9.364999831	F F F
     9.477999801         0.003000000         9.364999831	F F F
    14.215999427         2.755000214         9.364999831	F F F
     4.739999748         2.753999940         9.364000261	F F F
     7.899000263         2.753999940         9.366000295	T T T
    11.056999932         2.753999940         9.366000295	T T T
    15.795999824         5.505000371         9.366000295	F F F
     6.318999972         5.505000371         9.366000295	T T T
     9.479999495         5.507999881         9.362999797	T T T
    12.637999323         5.505999989         9.364999831	T T T
     4.741000132         8.255999489         9.366000295	F F F
     7.899000290         8.255999489         9.364999831	F F F
    11.057999646         8.253999598         9.359000623	T T T
    14.217000112         8.256999763         9.364999831	T T T
     1.580000104         0.919000063         0.025000001	F F F
     4.738999866         0.919000063         0.025000001	F F F
     7.897999440         0.919000063         0.025000001	F F F
    11.057999672         0.919000063         0.025000001	F F F
     3.158999810         3.669999919         0.025000001	F F F
     6.318999854         3.669999919         0.025000001	F F F
     9.477999805         3.669999919         0.025000001	F F F
    12.636999755         3.669999919         0.025000001	F F F
     4.738999846         6.421000022         0.025000001	F F F
     7.897999702         6.421000022         0.025000001	F F F
    11.057999558         6.421000022         0.025000001	F F F
    14.217000261         6.421000022         0.025000001	F F F
     6.318999693         9.171999796         0.025000001	F F F
     9.477999643         9.171999796         0.025000001	F F F
    12.637000347         9.171999796         0.025000001	F F F
    15.796999826         9.171999796         0.025000001	F F F
     1.580000104         0.919000063         3.167999983	F F F
     4.738999866         0.919000063         3.167999983	F F F
     7.897999440         0.919000063         3.167999983	F F F
    11.057999672         0.919000063         3.167999983	F F F
     3.158999810         3.669999919         3.167999983	F F F
     6.318999854         3.669999919         3.167999983	F F F
     9.477999805         3.669999919         3.167999983	F F F
    12.636999755         3.669999919         3.167999983	F F F
     4.738999846         6.421000022         3.167999983	F F F
     7.897999702         6.421000022         3.167999983	F F F
    11.057999558         6.421000022         3.167999983	F F F
    14.217000261         6.421000022         3.167999983	F F F
     6.318999693         9.171999796         3.167999983	F F F
     9.477999643         9.171999796         3.167999983	F F F
    12.637000347         9.171999796         3.167999983	F F F
    15.796999826         9.171999796         3.167999983	F F F
     9.409999857         4.080000045        12.461000383	T T T
    10.635999563         4.749999883        12.414999604	T T T
    10.659000183         6.146000137        12.364000082	T T T
     9.463999849         6.870999952        12.353999913	T T T
     8.241999641         6.192999891        12.387000024	T T T
     8.211000457         4.797999911        12.437999547	T T T
    11.558999709         4.166999931        12.412000000	T T T
    11.616999758         6.669000383        12.329000831	T T T
     9.484999806         7.961000031        12.314000130	T T T
     7.304999744         6.754000049        12.371000648	T T T
     7.265999956         4.251999925        12.453000247	T T T
     9.387999338         2.354000093        13.366999626	T T T
     9.381999925         2.273999993        11.609000266	T T T
     9.382000184         2.683999955        12.451999784	T T T
